
  22   10
  10   10   10   10   10   10   10   10   10   10

   0   0   0   0   0   0   0   0   0   0   0   1 2 
   7   0   0   0   0  10   0   0   0   0   0   1 3 
   3   0   0   0  10   0   0   0   0   0   0   1 4 
   2   0   0   0   0   0   0   0  10   0   0   1 5 
   3   0   0   0   0   0  10   0   0   0   0   2 19 6 
   1   0   0   0   0   0  10   0   0   0   0   1 7 
   6   0   0  10   0   0   0   0   0   0   0   1 8 
   1   0  10   0   0   0   0   0   0   0   0   1 9 
   8   0   0   0   0  10   0   0   0   0   0   1 10 
   6   0   0   0   0   0  10   0   0   0   0   2 21 11 
   6   0   0   0   0   0   0  10   0   0   0   1 12 
   9   0   0   0   0  10   0   0   0   0   0   1 13 
   7   0   0   0   0  10   0   0   0   0   0   1 14 
   5   0   0   0   0  10   0   0   0   0   0   1 15 
   9   0   0   0  10   0   0   0   0   0   0   1 16 
   8   0   0  10   0   0   0   0   0   0   0   1 17 
   6   0   0   0   0   0   0  10   0   0   0   1 18 
   2   0   0   0  10   0   0   0   0   0   0   1 20 
   9   0   0   0   0   0   0   0  10   0   0   1 20 
   3  10   0   0   0   0   0   0   0   0   0   1 22
   3   0  10   0   0   0   0   0   0   0   0   1 22
   0   0   0   0   0   0   0   0   0   0   0   0 
